Instance: E101-10c.dat
Class:  2
  100 --- number of customers (no depot)
   19 --- number of vehicles
  147 --- number of items
Capacity - height - width of vehicles
   200     40     20
Node - x - y - demand
    0    40.0    50.0     0.0
    1    45.0    68.0    10.0
    2    45.0    70.0    30.0
    3    42.0    66.0    10.0
    4    42.0    68.0    10.0
    5    42.0    65.0    10.0
    6    40.0    69.0    20.0
    7    40.0    66.0    20.0
    8    38.0    68.0    20.0
    9    38.0    70.0    10.0
   10    35.0    66.0    10.0
   11    35.0    69.0    10.0
   12    25.0    85.0    20.0
   13    22.0    75.0    30.0
   14    22.0    85.0    10.0
   15    20.0    80.0    40.0
   16    20.0    85.0    40.0
   17    18.0    75.0    20.0
   18    15.0    75.0    20.0
   19    15.0    80.0    10.0
   20    30.0    50.0    10.0
   21    30.0    52.0    20.0
   22    28.0    52.0    20.0
   23    28.0    55.0    10.0
   24    25.0    50.0    10.0
   25    25.0    52.0    40.0
   26    25.0    55.0    10.0
   27    23.0    52.0    10.0
   28    23.0    55.0    20.0
   29    20.0    50.0    10.0
   30    20.0    55.0    10.0
   31    10.0    35.0    20.0
   32    10.0    40.0    30.0
   33     8.0    40.0    40.0
   34     8.0    45.0    20.0
   35     5.0    35.0    10.0
   36     5.0    45.0    10.0
   37     2.0    40.0    20.0
   38     0.0    40.0    30.0
   39     0.0    45.0    20.0
   40    35.0    30.0    10.0
   41    35.0    32.0    10.0
   42    33.0    32.0    20.0
   43    33.0    35.0    10.0
   44    32.0    30.0    10.0
   45    30.0    30.0    10.0
   46    30.0    32.0    30.0
   47    30.0    35.0    10.0
   48    28.0    30.0    10.0
   49    28.0    35.0    10.0
   50    26.0    32.0    10.0
   51    25.0    30.0    10.0
   52    25.0    35.0    10.0
   53    44.0     5.0    20.0
   54    42.0    10.0    40.0
   55    42.0    15.0    10.0
   56    40.0     5.0    30.0
   57    40.0    15.0    40.0
   58    38.0     5.0    30.0
   59    38.0    15.0    10.0
   60    35.0     5.0    20.0
   61    50.0    30.0    10.0
   62    50.0    35.0    20.0
   63    50.0    40.0    50.0
   64    48.0    30.0    10.0
   65    48.0    40.0    10.0
   66    47.0    35.0    10.0
   67    47.0    40.0    10.0
   68    45.0    30.0    10.0
   69    45.0    35.0    10.0
   70    95.0    30.0    30.0
   71    95.0    35.0    20.0
   72    53.0    30.0    10.0
   73    92.0    30.0    10.0
   74    53.0    35.0    50.0
   75    45.0    65.0    20.0
   76    90.0    35.0    10.0
   77    88.0    30.0    10.0
   78    88.0    35.0    20.0
   79    87.0    30.0    10.0
   80    85.0    25.0    10.0
   81    85.0    35.0    30.0
   82    75.0    55.0    20.0
   83    72.0    55.0    10.0
   84    70.0    58.0    20.0
   85    68.0    60.0    30.0
   86    66.0    55.0    10.0
   87    65.0    55.0    20.0
   88    65.0    60.0    30.0
   89    63.0    58.0    10.0
   90    60.0    55.0    10.0
   91    60.0    60.0    10.0
   92    67.0    85.0    20.0
   93    65.0    85.0    40.0
   94    65.0    82.0    10.0
   95    62.0    80.0    30.0
   96    60.0    80.0    10.0
   97    60.0    85.0    30.0
   98    58.0    75.0    20.0
   99    55.0    80.0    10.0
  100    55.0    85.0    20.0
Node - number of items - h - w for each item
    0   0
    1   1   23    3
    2   1   15    4
    3   1   29    4
    4   1    7   15
    5   2   17    4   30    3
    6   2    6   13   15    6
    7   1   34    3
    8   1    5   17
    9   1   19    7
   10   1   28    3
   11   2   25    3   17    3
   12   2   32    4   24    4
   13   2    8    8   12    5
   14   2    7   18    6   16
   15   2   11    5   22    2
   16   2   10    9   15    6
   17   2   18    4   24    3
   18   2   20    3   17    2
   19   2   12    7   33    3
   20   2   13    8   34    4
   21   2   11    6   27    3
   22   2    8   16   17    2
   23   1   20    9
   24   1   29    2
   25   2   18    8   28    3
   26   1    7   10
   27   2    7   14   26    2
   28   1   25    3
   29   1   26    3
   30   2    7   12   31    2
   31   1    6   15
   32   2   13    9   31    3
   33   1   16    4
   34   1    4   10
   35   2    7   16   16    4
   36   1    6   14
   37   1   19   10
   38   2   30    4   27    4
   39   2   32    3   22    3
   40   1   28    3
   41   1   27    3
   42   1   18    4
   43   1   16    9
   44   2    5   14   20    4
   45   1   11    4
   46   2   10   10   15    9
   47   2    8   18   21    3
   48   2   30    3   33    2
   49   2    5   15    8   12
   50   2   32    3   22    3
   51   2    7   14    9    6
   52   1   18    6
   53   1   17    7
   54   2   11    7   11    6
   55   2    6   17   28    3
   56   1    5   16
   57   1   15   10
   58   2    6   17    9    6
   59   1    5   13
   60   2   10    6   10    5
   61   2    5   13   20    3
   62   2    9    9   30    2
   63   1   15    6
   64   2    7   11    9    7
   65   1    8    9
   66   2    8   16   36    2
   67   1   18    8
   68   1    8   10
   69   1   30    3
   70   1   20    6
   71   1   18    3
   72   2   18    7   18    3
   73   1   20    4
   74   2   15    7   19    6
   75   2    6   16   30    3
   76   1   18    2
   77   2    5   15    8    6
   78   1    4    8
   79   1    5   13
   80   1   30    3
   81   1   16    5
   82   2   15    8   26    3
   83   1   10    8
   84   1   24    3
   85   1   35    4
   86   1   22    3
   87   1    8   14
   88   1    6   13
   89   1   28    3
   90   1   12    9
   91   2    5   15    6    9
   92   2    6   14   21    2
   93   1   20    7
   94   2   13    9    8    6
   95   1   34    4
   96   2    4   16   29    3
   97   1   32    4
   98   1    5   16
   99   2   29    3   20    3
  100   2    7   13   29    3
